
Gurobi 11.0.1 (win64) logging started Mon Apr  1 12:49:31 2024

Set parameter LogFile to value "C:\Projetos\Job_Rotation_Algorithms\Outputs\GurobiLogs\gurobi_log-output-56_wee-c18-CostaMirallesModel-NoExtraConstraint-2.log"
Gurobi Optimizer version 11.0.1 build v11.0.1rc0 (win64 - Windows 10.0 (19045.2))

CPU model: 11th Gen Intel(R) Core(TM) i7-1165G7 @ 2.80GHz, instruction set [SSE2|AVX|AVX2|AVX512]
Thread count: 4 physical cores, 8 logical processors, using up to 1 threads


Gurobi 11.0.1 (win64) logging started Mon Apr  1 21:37:21 2024

Set parameter LogFile to value "C:\Projetos\Job_Rotation_Algorithms\Outputs\GurobiLogs\gurobi_log-output-56_wee-c18-CostaMirallesModel-NoExtraConstraint-2.log"
Gurobi Optimizer version 11.0.1 build v11.0.1rc0 (win64 - Windows 10.0 (19045.2))

CPU model: 11th Gen Intel(R) Core(TM) i7-1165G7 @ 2.80GHz, instruction set [SSE2|AVX|AVX2|AVX512]
Thread count: 4 physical cores, 8 logical processors, using up to 1 threads


Gurobi 11.0.1 (win64) logging started Thu Apr  4 23:34:46 2024

Set parameter LogFile to value "C:\Projetos\Job_Rotation_Algorithms\Outputs\GurobiLogs\gurobi_log-output-56_wee-c18-CostaMirallesModel-NoExtraConstraint-2.log"
Gurobi Optimizer version 11.0.1 build v11.0.1rc0 (win64 - Windows 10.0 (19045.2))

CPU model: 11th Gen Intel(R) Core(TM) i7-1165G7 @ 2.80GHz, instruction set [SSE2|AVX|AVX2|AVX512]
Thread count: 4 physical cores, 8 logical processors, using up to 1 threads


Gurobi 11.0.1 (win64) logging started Sat Apr  6 13:04:56 2024

Set parameter LogFile to value "C:\Projetos\Job_Rotation_Algorithms\Outputs\GurobiLogs\gurobi_log-output-56_wee-c18-CostaMirallesModel-NoExtraConstraint-2.log"
Gurobi Optimizer version 11.0.1 build v11.0.1rc0 (win64 - Windows 10.0 (19045.2))

CPU model: 11th Gen Intel(R) Core(TM) i7-1165G7 @ 2.80GHz, instruction set [SSE2|AVX|AVX2|AVX512]
Thread count: 4 physical cores, 8 logical processors, using up to 1 threads


Gurobi 11.0.1 (win64) logging started Sun Apr  7 02:37:12 2024

Set parameter LogFile to value "C:\Projetos\Job_Rotation_Algorithms\Outputs\GurobiLogs\gurobi_log-output-56_wee-c18-CostaMirallesModel-NoExtraConstraint-2.log"
Gurobi Optimizer version 11.0.1 build v11.0.1rc0 (win64 - Windows 10.0 (19045.2))

CPU model: 11th Gen Intel(R) Core(TM) i7-1165G7 @ 2.80GHz, instruction set [SSE2|AVX|AVX2|AVX512]
Thread count: 4 physical cores, 8 logical processors, using up to 1 threads


Gurobi 11.0.1 (win64) logging started Sun Apr  7 09:50:08 2024

Set parameter LogFile to value "C:\Projetos\Job_Rotation_Algorithms\Outputs\GurobiLogs\gurobi_log-output-56_wee-c18-CostaMirallesModel-NoExtraConstraint-2.log"
Gurobi Optimizer version 11.0.1 build v11.0.1rc0 (win64 - Windows 10.0 (19045.2))

CPU model: 11th Gen Intel(R) Core(TM) i7-1165G7 @ 2.80GHz, instruction set [SSE2|AVX|AVX2|AVX512]
Thread count: 4 physical cores, 8 logical processors, using up to 1 threads


Gurobi 11.0.1 (win64) logging started Wed Apr 10 17:38:47 2024

Set parameter LogFile to value "C:\Projetos\Job_Rotation_Algorithms\Outputs\GurobiLogs\gurobi_log-output-56_wee-c18-CostaMirallesModel-NoExtraConstraint-2.log"
Gurobi Optimizer version 11.0.1 build v11.0.1rc0 (win64 - Windows 10.0 (19045.2))

CPU model: 11th Gen Intel(R) Core(TM) i7-1165G7 @ 2.80GHz, instruction set [SSE2|AVX|AVX2|AVX512]
Thread count: 4 physical cores, 8 logical processors, using up to 1 threads


Gurobi 11.0.1 (win64) logging started Thu Apr 11 01:43:46 2024

Set parameter LogFile to value "C:\Projetos\Job_Rotation_Algorithms\Outputs\GurobiLogs\gurobi_log-output-56_wee-c18-CostaMirallesModel-NoExtraConstraint-2.log"
Gurobi Optimizer version 11.0.1 build v11.0.1rc0 (win64 - Windows 10.0 (19045.2))

CPU model: 11th Gen Intel(R) Core(TM) i7-1165G7 @ 2.80GHz, instruction set [SSE2|AVX|AVX2|AVX512]
Thread count: 4 physical cores, 8 logical processors, using up to 1 threads


Gurobi 11.0.1 (win64) logging started Sun Apr 21 03:00:33 2024

Set parameter LogFile to value "C:\Projetos\Job_Rotation_Algorithms\Outputs\GurobiLogs\gurobi_log-output-56_wee-c18-CostaMirallesModel-NoExtraConstraint-2.log"
Gurobi Optimizer version 11.0.1 build v11.0.1rc0 (win64 - Windows 10.0 (19045.2))

CPU model: 11th Gen Intel(R) Core(TM) i7-1165G7 @ 2.80GHz, instruction set [SSE2|AVX|AVX2|AVX512]
Thread count: 4 physical cores, 8 logical processors, using up to 1 threads


Gurobi 11.0.1 (win64) logging started Fri Apr 26 07:42:31 2024

Set parameter LogFile to value "C:\Projetos\Job_Rotation_Algorithms\Outputs\GurobiLogs\gurobi_log-output-56_wee-c18-CostaMirallesModel-NoExtraConstraint-2.log"
Gurobi Optimizer version 11.0.1 build v11.0.1rc0 (win64 - Windows 10.0 (19045.2))

CPU model: 11th Gen Intel(R) Core(TM) i7-1165G7 @ 2.80GHz, instruction set [SSE2|AVX|AVX2|AVX512]
Thread count: 4 physical cores, 8 logical processors, using up to 1 threads


Gurobi 11.0.1 (win64) logging started Sat Apr 27 04:33:51 2024

Set parameter LogFile to value "C:\Projetos\Job_Rotation_Algorithms\Outputs\GurobiLogs\gurobi_log-output-56_wee-c18-CostaMirallesModel-NoExtraConstraint-2.log"
Gurobi Optimizer version 11.0.1 build v11.0.1rc0 (win64 - Windows 10.0 (19045.2))

CPU model: 11th Gen Intel(R) Core(TM) i7-1165G7 @ 2.80GHz, instruction set [SSE2|AVX|AVX2|AVX512]
Thread count: 4 physical cores, 8 logical processors, using up to 1 threads


Gurobi 11.0.1 (win64) logging started Sat Apr 27 14:51:52 2024

Set parameter LogFile to value "C:\Projetos\Job_Rotation_Algorithms\Outputs\GurobiLogs\gurobi_log-output-56_wee-c18-CostaMirallesModel-NoExtraConstraint-2.log"
Gurobi Optimizer version 11.0.1 build v11.0.1rc0 (win64 - Windows 10.0 (19045.2))

CPU model: 11th Gen Intel(R) Core(TM) i7-1165G7 @ 2.80GHz, instruction set [SSE2|AVX|AVX2|AVX512]
Thread count: 4 physical cores, 8 logical processors, using up to 1 threads


Gurobi 11.0.1 (win64) logging started Thu May  2 20:00:31 2024

Set parameter LogFile to value "C:\Projetos\Job_Rotation_Algorithms\Outputs\GurobiLogs\gurobi_log-output-56_wee-c18-CostaMirallesModel-NoExtraConstraint-2.log"
Gurobi Optimizer version 11.0.1 build v11.0.1rc0 (win64 - Windows 10.0 (19045.2))

CPU model: 11th Gen Intel(R) Core(TM) i7-1165G7 @ 2.80GHz, instruction set [SSE2|AVX|AVX2|AVX512]
Thread count: 4 physical cores, 8 logical processors, using up to 1 threads

WLS license 901038 - registered to Bitka Analytics
Optimize a model with 5920 rows, 42805 columns and 1056797 nonzeros
Model fingerprint: 0x203a3167
Variable types: 2 continuous, 42803 integer (42803 binary)
Coefficient statistics:
  Matrix range     [1e+00, 8e+01]
  Objective range  [1e+00, 1e+00]
  Bounds range     [1e+00, 4e+01]
  RHS range        [1e+00, 4e+01]
Presolve added 1830 rows and 1037 columns
Presolve time: 4.18s
Presolved: 7750 rows, 43842 columns, 337434 nonzeros
Variable types: 0 continuous, 43842 integer (42453 binary)

Root simplex log...

Iteration    Objective       Primal Inf.    Dual Inf.      Time
       0    1.0790000e+03   1.417000e+03   0.000000e+00      7s
    8117    1.5000000e+02   0.000000e+00   0.000000e+00      9s

Root relaxation: objective 1.500000e+02, 8117 iterations, 1.41 seconds (1.83 work units)

    Nodes    |    Current Node    |     Objective Bounds      |     Work
 Expl Unexpl |  Obj  Depth IntInf | Incumbent    BestBd   Gap | It/Node Time

     0     0  150.00000    0  156          -  150.00000      -     -    9s
     0     0  150.00000    0  156          -  150.00000      -     -   10s
     0     0  150.00000    0  187          -  150.00000      -     -   13s
     0     0  150.00000    0  176          -  150.00000      -     -   13s
     0     0  150.00000    0 1045          -  150.00000      -     -   16s
     0     0  150.00000    0  883          -  150.00000      -     -   17s
     0     0  150.00000    0  891          -  150.00000      -     -   17s
     0     0  150.00000    0  898          -  150.00000      -     -   18s
     0     0  150.00000    0  718          -  150.00000      -     -   18s
     0     0  150.00000    0 1009          -  150.00000      -     -   18s
     0     0  150.00000    0  922          -  150.00000      -     -   18s
     0     0  150.00000    0  912          -  150.00000      -     -   18s
     0     0  150.00000    0  913          -  150.00000      -     -   18s
     0     0  150.00000    0  912          -  150.00000      -     -   18s
     0     0  150.00000    0  913          -  150.00000      -     -   18s
     0     0  150.00000    0  175          -  150.00000      -     -   23s
     0     0  150.00000    0  175          -  150.00000      -     -   23s
     0     0  150.00000    0  222          -  150.00000      -     -   25s
     0     0  150.00000    0  202          -  150.00000      -     -   25s
     0     0  150.00000    0  213          -  150.00000      -     -   26s
     0     0  150.00000    0  216          -  150.00000      -     -   26s
     0     0  150.00000    0  198          -  150.00000      -     -   28s
     0     0  150.00000    0  197          -  150.00000      -     -   28s
     0     0  150.00000    0  234          -  150.00000      -     -   29s
     0     0  150.00000    0  235          -  150.00000      -     -   29s
     0     0  150.00000    0  234          -  150.00000      -     -   29s
     0     0  150.00000    0  234          -  150.00000      -     -   29s
     0     0  150.00000    0  234          -  150.00000      -     -   29s
     0     0  150.00000    0  233          -  150.00000      -     -   29s
     0     0  150.00000    0  234          -  150.00000      -     -   29s
     0     0  150.00000    0  235          -  150.00000      -     -   29s
     0     0  150.00000    0  235          -  150.00000      -     -   29s
     0     0  150.00000    0  235          -  150.00000      -     -   29s
     0     0  150.00000    0  235          -  150.00000      -     -   29s
     0     0  150.00000    0  263          -  150.00000      -     -   32s
     0     0  150.00000    0  262          -  150.00000      -     -   32s
     0     0  150.00000    0  261          -  150.00000      -     -   33s
     0     2  150.00000    0  256          -  150.00000      -     -   39s
     3     5  150.00000    2  335          -  150.00000      -  1034   40s
    64    66  150.00000   37  369          -  150.00000      -   144   45s
   127   129  150.00000   74  522          -  150.00000      -   157   50s
   176   156  150.00000   18 1041          -  150.00000      -   244   55s
   240   217  150.00000   55  345          -  150.00000      -   235   60s
   350   307  150.00000  128  453          -  150.00000      -   181   65s
   417   358  150.00000  173  661          -  150.00000      -   182   70s
   505   394  150.00000  242  706          -  150.00000      -   172   75s
   543   417  150.00000   41  439          -  150.00000      -   190   80s
   599   459  150.00000   70  156          -  150.00000      -   176  158s
   601   460  150.00000   23  210          -  150.00000      -   175  164s
   602   461  150.00000   64  970          -  150.00000      -   175  166s
   604   462  150.00000   68  237          -  150.00000      -   174  174s
   605   463  150.00000  166  524          -  150.00000      -   174  175s
   606   464  150.00000  199  226          -  150.00000      -   174  180s
   608   465  150.00000   44  269          -  150.00000      -   173  186s
   610   466  150.00000   37  240          -  150.00000      -   172  194s
   611   467  150.00000  129  753          -  150.00000      -   172  196s
   612   468  150.00000  113  260          -  150.00000      -   172  201s
   614   469  150.00000   20  245          -  150.00000      -   171  206s
   624   478  150.00000   17  495          -  150.00000      -   624  210s
   635   485  150.00000   23  229          -  150.00000      -   615  218s
   659   501  150.00000   35  241          -  150.00000      -   595  220s
   770   569  150.00000   92  308          -  150.00000      -   520  225s
   848   596  150.00000   71  267          -  150.00000      -   495  231s
   856   601  150.00000   75  325          -  150.00000      -   491  235s
   866   608  150.00000   80  426          -  150.00000      -   486  240s
   876   615  150.00000   85  229          -  150.00000      -   482  245s
   891   624  150.00000   93  407          -  150.00000      -   475  250s
   931   646  150.00000  114  391          -  150.00000      -   469  255s
   962   653 infeasible  131               -  150.00000      -   458  260s
  1013   678  150.00000   95  385          -  150.00000      -   438  265s
  1052   697  150.00000  117  578          -  150.00000      -   430  270s
  1132   725  150.00000  164  246          -  150.00000      -   409  275s
  1181   746  150.00000  191  514          -  150.00000      -   397  280s
  1227   756  150.00000   29  653          -  150.00000      -   389  285s
  1319   801  150.00000   81  253          -  150.00000      -   367  290s
  1380   829  150.00000  116  509          -  150.00000      -   358  295s
  1451   829 infeasible  120               -  150.00000      -   345  300s
  1489   833  150.00000  108  617          -  150.00000      -   341  305s
  1585   835  150.00000   95  253          -  150.00000      -   324  310s
  1678   854  150.00000  133  412          -  150.00000      -   309  315s
  1769   861  150.00000   96  202          -  150.00000      -   296  320s
  1837   869  150.00000   97  258          -  150.00000      -   290  325s
  1912   880  150.00000  101  482          -  150.00000      -   283  330s
  2007   900  150.00000  106  466          -  150.00000      -   273  335s
  2108   947  150.00000   93  219          -  150.00000      -   263  340s
  2175   992  150.00000  118  564          -  150.00000      -   258  345s
  2243  1039  150.00000  106  466          -  150.00000      -   255  350s
  2309  1097  150.00000  131  799          -  150.00000      -   254  355s
  2335  1118  150.00000  139  506          -  150.00000      -   256  360s
  2357  1128  150.00000  142  348          -  150.00000      -   259  366s
  2376  1132 infeasible  150               -  150.00000      -   259  370s
  2434  1173  150.00000  133  309          -  150.00000      -   256  375s
  2494  1215  150.00000  118  605          -  150.00000      -   254  380s
  2564  1261  150.00000  134  525          -  150.00000      -   251  385s
  2635  1296  150.00000  125  595          -  150.00000      -   247  390s
  2679  1331  150.00000  152  421          -  150.00000      -   246  395s
  2702  1351  150.00000  161  588          -  150.00000      -   247  401s
  2712  1361  150.00000  162  270          -  150.00000      -   249  405s
  2743  1387  150.00000  175  624          -  150.00000      -   249  410s
  2772  1410  150.00000  184  715          -  150.00000      -   250  415s
  2798  1412  150.00000  113  391          -  150.00000      -   250  420s
  2837  1437  150.00000  132  231          -  150.00000      -   250  425s
  2906  1471  150.00000  122  199          -  150.00000      -   248  430s
  2943  1492  150.00000  138  612          -  150.00000      -   248  436s
  2952  1489 infeasible  140               -  150.00000      -   248  440s
  3021  1529  150.00000  147  452          -  150.00000      -   247  445s
  3042  1541 infeasible  158               -  150.00000      -   248  450s
  3053  1546  150.00000  160  630          -  150.00000      -   250  455s
  3074  1561  150.00000  172  505          -  150.00000      -   251  460s
  3107  1566  150.00000  114  453          -  150.00000      -   250  465s
  3216  1613  150.00000  125  393          -  150.00000      -   244  470s
  3313  1654 infeasible  124               -  150.00000      -   241  475s
  3343  1667  150.00000  136  310          -  150.00000      -   239  489s
  3344  1668  150.00000  137  327          -  150.00000      -   239  490s
  3357  1677  150.00000  145  285          -  150.00000      -   239  495s
  3439  1716  150.00000  135  371          -  150.00000      -   235  500s
  3547  1769  150.00000  166  311          -  150.00000      -   231  505s
  3620  1797  149.88924  160  325          -  150.00000      -   229  510s
  3719  1842 infeasible  149               -  150.00000      -   226  515s
  3798  1860  150.00000  130  618          -  150.00000      -   225  520s
  3903  1909 infeasible  144               -  150.00000      -   222  525s
  4000  1946 infeasible  147               -  150.00000      -   219  530s
  4102  1975  150.00000  124  511          -  150.00000      -   216  535s
  4245  2029  150.00000  132  459          -  150.00000      -   212  540s
  4399  2090 infeasible  160               -  150.00000      -   208  545s
  4465  2115 infeasible  170               -  150.00000      -   207  550s
  4572  2136  150.00000  151  409          -  150.00000      -   204  555s
  4779  2254 infeasible  196               -  150.00000      -   198  560s
  4950  2308  150.00000  119  518          -  150.00000      -   195  565s
  5085  2371  150.00000  102  345          -  150.00000      -   191  570s
  5101  2373  150.00000   98  378          -  150.00000      -   191  576s
  5204  2437  150.00000  132  137          -  150.00000      -   189  580s
  5281  2479 infeasible  173               -  150.00000      -   188  585s
  5390  2540  150.00000  132  381          -  150.00000      -   186  590s
  5570  2633  150.00000  136  451          -  150.00000      -   181  595s
  5698  2717  150.00000  140  326          -  150.00000      -   179  600s
  5790  2791  149.00000  189  304          -  150.00000      -   178  605s
  5974  2901  150.00000  181  278          -  150.00000      -   174  610s
  6153  2983 infeasible  136               -  150.00000      -   171  615s
  6311  3073 infeasible  129               -  150.00000      -   168  620s
  6528  3154  150.00000  135  177          -  150.00000      -   164  625s
  6694  3230  150.00000  162  313          -  150.00000      -   161  630s
  6851  3298  150.00000  149  281          -  150.00000      -   159  635s
  7062  3399 infeasible  177               -  150.00000      -   156  640s
  7308  3465  150.00000  185  216          -  150.00000      -   152  645s
  7503  3487 infeasible  193               -  150.00000      -   150  650s
  7726  3549 infeasible  161               -  150.00000      -   147  655s
  8007  3616  150.00000  192  178          -  150.00000      -   142  660s
  8216  3615 infeasible  207               -  150.00000      -   140  665s
  8404  3646 infeasible  171               -  150.00000      -   138  670s
  8627  3717 infeasible  186               -  150.00000      -   135  675s
  8848  3751  150.00000  137  308          -  150.00000      -   133  680s
  9038  3829  150.00000  162  189          -  150.00000      -   132  685s
  9217  3910  149.24413  183  446          -  150.00000      -   130  690s
  9421  4028  150.00000  176  291          -  150.00000      -   129  695s
  9623  4117  150.00000  163  300          -  150.00000      -   127  700s
  9736  4162 infeasible  200               -  150.00000      -   127  705s
  9947  4229 infeasible  178               -  150.00000      -   126  710s
 10186  4307 infeasible  200               -  150.00000      -   124  715s
 10202  4303 infeasible  192               -  150.00000      -   124  845s
 10402  4353  149.13333  186  364          -  150.00000      -   122  850s
 10625  4393 infeasible  187               -  150.00000      -   121  855s
 10819  4420 infeasible  193               -  150.00000      -   119  860s
 11033  4438 infeasible  170               -  150.00000      -   118  865s
 11204  4492  149.48402  183  330          -  150.00000      -   118  870s
 11394  4528 infeasible  189               -  150.00000      -   117  875s
 11601  4581 infeasible  167               -  150.00000      -   116  880s
 11842  4676 infeasible  179               -  150.00000      -   114  885s
 12073  4806  149.84028  175  121          -  150.00000      -   113  890s
 12341  4911 infeasible  182               -  150.00000      -   112  895s
 12607  4985  150.00000  173  153          -  150.00000      -   110  900s
 12926  5034  147.86790  178  249          -  150.00000      -   108  905s
 13208  5060  150.00000  175  135          -  150.00000      -   106  910s
 13483  5074 infeasible  186               -  150.00000      -   104  915s
 13530  5072  150.00000  182  135          -  150.00000      -   104  928s
 13547  5055 infeasible  163               -  150.00000      -   104  930s
 13583  5027  150.00000  123  233          -  150.00000      -   104  935s
 13665  5052 infeasible  188               -  150.00000      -   104  940s
 13891  5115 infeasible  166               -  150.00000      -   102  945s
 14169  5181 infeasible  170               -  150.00000      -   101  950s
 14442  5247 infeasible  171               -  150.00000      -   100  955s
 14644  5314 infeasible  179               -  150.00000      -  99.3  960s
 14893  5364 infeasible  175               -  150.00000      -  98.4  965s
 15103  5399  149.00000  166  175          -  150.00000      -  97.8  970s
 15303  5430  150.00000  162  149          -  150.00000      -  97.0  979s
 15338  5438 infeasible  160               -  150.00000      -  96.8  980s
 15579  5447 infeasible  185               -  150.00000      -  95.8  985s
 15810  5458  149.00000  161  356          -  150.00000      -  95.0  990s
 16057  5541  148.71806  175  292          -  150.00000      -  94.4  995s
 16324  5623 infeasible  139               -  150.00000      -  93.5 1000s
 16610  5693 infeasible  186               -  150.00000      -  92.4 1005s
 16791  5750  150.00000  179  267          -  150.00000      -  92.2 1010s
 17014  5795 infeasible  205               -  150.00000      -  91.8 1015s
 17186  5818  150.00000  188  147          -  150.00000      -  91.7 1020s
 17375  5881  150.00000  174  297          -  150.00000      -  91.4 1025s
 17632  5954 infeasible  201               -  150.00000      -  90.8 1030s
 17831  6025 infeasible  184               -  150.00000      -  90.5 1035s
 18092  6120  150.00000  137  229          -  150.00000      -  89.9 1040s
 18301  6222 infeasible  186               -  150.00000      -  89.5 1045s
 18522  6321 infeasible  188               -  150.00000      -  89.0 1050s
 18747  6353 infeasible  168               -  150.00000      -  88.6 1055s
 18884  6381 infeasible  166               -  150.00000      -  88.8 1060s
 19072  6401  149.87825  179  255          -  150.00000      -  88.6 1065s
 19332  6476  143.04287  187  121          -  150.00000      -  88.1 1070s
 19577  6514 infeasible  180               -  150.00000      -  87.6 1075s
 19780  6590  150.00000  167  293          -  150.00000      -  87.5 1080s
 19965  6654  150.00000  194  333          -  150.00000      -  87.6 1085s
 20195  6758  150.00000  168  156          -  150.00000      -  87.4 1090s
 20404  6854  148.11783  196  244          -  150.00000      -  87.1 1099s
 20410  6858 infeasible  196               -  150.00000      -  87.1 1100s
 20612  6935  150.00000  173  283          -  150.00000      -  87.0 1105s
 20832  6997 infeasible  199               -  150.00000      -  86.6 1110s
 21000  7003  150.00000  166  185          -  150.00000      -  86.3 1115s
 21157  7048 infeasible  205               -  150.00000      -  86.3 1120s
 21321  7081  150.00000  193  383          -  150.00000      -  86.1 1125s
 21449  7095  150.00000  176  251          -  150.00000      -  86.2 1130s
 21632  7130  150.00000  194  230          -  150.00000      -  85.9 1135s
 21854  7162 infeasible  189               -  150.00000      -  85.5 1140s
 22010  7179  150.00000  176  195          -  150.00000      -  85.4 1145s
 22254  7220 infeasible  199               -  150.00000      -  84.9 1150s
 22466  7241 infeasible  195               -  150.00000      -  84.5 1155s
 22671  7247 infeasible  181               -  150.00000      -  84.1 1160s
 22841  7264 infeasible  196               -  150.00000      -  83.9 1165s
 23048  7266 infeasible  207               -  150.00000      -  83.5 1170s
 23186  7268  150.00000  201  203          -  150.00000      -  83.3 1175s
 23348  7278  147.79115  187  281          -  150.00000      -  83.2 1180s
 23537  7311 infeasible  188               -  150.00000      -  82.9 1185s
 23726  7327 infeasible  193               -  150.00000      -  82.8 1190s
 23902  7348  150.00000  189  277          -  150.00000      -  82.6 1195s
 24077  7387  150.00000  174  244          -  150.00000      -  82.4 1200s
 24231  7414  150.00000  149  516          -  150.00000      -  82.4 1205s
 24391  7476  150.00000  189  240          -  150.00000      -  82.3 1210s
 24635  7525 infeasible  194               -  150.00000      -  81.9 1215s
 24867  7584 infeasible  213               -  150.00000      -  81.6 1220s
 25045  7576  150.00000  200  189          -  150.00000      -  81.4 1225s
 25163  7591  150.00000  169  355          -  150.00000      -  81.5 1230s
 25331  7641 infeasible  171               -  150.00000      -  81.2 1235s
 25505  7745  150.00000  211  200          -  150.00000      -  81.0 1245s
 25723  7843  150.00000  208  205          -  150.00000      -  80.6 1250s
 25950  7860 infeasible  199               -  150.00000      -  80.2 1255s
 26172  7910 infeasible  220               -  150.00000      -  79.8 1260s
 26357  7946  150.00000  135  296          -  150.00000      -  79.5 1280s
 26364  7953  149.00000  142  307          -  150.00000      -  79.5 1285s
 26377  7962  149.00000  145  343          -  150.00000      -  79.6 1290s
 26389  7968  148.89023  151  152          -  150.00000      -  79.7 1295s
 26504  8016  150.00000  149  314          -  150.00000      -  79.6 1300s
 26677  8065 infeasible  178               -  150.00000      -  79.5 1305s
 26909  8092 infeasible  158               -  150.00000      -  79.1 1310s
 27084  8142 infeasible  178               -  150.00000      -  79.0 1315s
 27311  8194 infeasible  186               -  150.00000      -  78.7 1320s
 27510  8246  150.00000  155  249          -  150.00000      -  78.5 1325s
 27745  8282 infeasible  188               -  150.00000      -  78.2 1330s
 28005  8310 infeasible  175               -  150.00000      -  77.7 1335s
 28222  8339 infeasible  172               -  150.00000      -  77.4 1340s
 28472  8372  150.00000  173  353          -  150.00000      -  77.1 1345s
 28613  8375  150.00000  144  376          -  150.00000      -  76.9 1350s
 28755  8421 infeasible  149               -  150.00000      -  76.9 1355s
 28947  8462 infeasible  157               -  150.00000      -  76.6 1360s
 29135  8551  149.00000  165  388          -  150.00000      -  76.4 1365s
 29268  8605  150.00000  159  380          -  150.00000      -  76.4 1370s
 29437  8683 infeasible  160               -  150.00000      -  76.4 1375s
 29620  8738  149.00000  171  346          -  150.00000      -  76.3 1380s
 29835  8799  149.00000  171  394          -  150.00000      -  76.2 1385s
 30050  8848  149.33333  166  494          -  150.00000      -  76.1 1390s
 30301  8919 infeasible  194               -  150.00000      -  75.8 1395s
 30534  8973  150.00000  186  201          -  150.00000      -  75.8 1400s
 30606  9001 infeasible  188               -  150.00000      -  75.7 1406s
 30781  9064 infeasible  196               -  150.00000      -  75.6 1410s
H31067  9122                     140.0000000  150.00000  7.14%  75.3 1414s
H31067  9035                     144.0000000  150.00000  4.17%  75.3 1414s
H31093  8998                     145.0000000  150.00000  3.45%  75.3 1415s
H31126  7463                     149.0000000  150.00000  0.67%  75.3 1420s
 31128  7466  150.00000  101  156  149.00000  150.00000  0.67%  75.3 1431s
 31130  7467  150.00000  197  203  149.00000  150.00000  0.67%  75.2 1436s
H31130  7093                     150.0000000  150.00000  0.00%  75.2 1438s

Cutting planes:
  Gomory: 20
  Cover: 63
  Implied bound: 1
  Clique: 16
  MIR: 3
  StrongCG: 4
  Flow cover: 25
  Zero half: 5
  RLT: 1
  Relax-and-lift: 2

Explored 31130 nodes (2395908 simplex iterations) in 1439.02 seconds (1035.31 work units)
Thread count was 1 (of 8 available processors)

Solution count 5: 150 149 145 ... 140

Optimal solution found (tolerance 1.00e-03)
Best objective 1.500000000000e+02, best bound 1.500000000000e+02, gap 0.0000%
